
<<< setup


<<< generate

Tried aggregator 1 time.
MIP Presolve eliminated 0 rows and 1 columns.
MIP Presolve modified 40 coefficients.
Reduced MIP has 764 rows, 642 columns, and 3410 nonzeros.
Reduced MIP has 560 binaries, 0 generals, 0 SOSs, and 0 indicators.
Presolve time = 0,01 sec. (2,32 ticks)
Found incumbent of value 1,000000 after 0,01 sec. (5,23 ticks)
Probing fixed 0 vars, tightened 61 bounds.
Probing time = 0,01 sec. (6,01 ticks)
Tried aggregator 1 time.
MIP Presolve modified 110 coefficients.
Reduced MIP has 764 rows, 642 columns, and 3410 nonzeros.
Reduced MIP has 560 binaries, 0 generals, 0 SOSs, and 0 indicators.
Presolve time = 0,00 sec. (1,58 ticks)
Probing time = 0,01 sec. (2,93 ticks)
Clique table members: 2292.
MIP emphasis: balance optimality and feasibility.
MIP search method: dynamic search.
Parallel mode: deterministic, using up to 4 threads.
Root relaxation solution time = 0,01 sec. (11,88 ticks)

        Nodes                                         Cuts/
   Node  Left     Objective  IInf  Best Integer    Best Bound    ItCnt     Gap

*     0+    0                            1,0000       40,0000      403     --- 
      0     0       39,8127   258        1,0000       39,8127      403     --- 
      0     0       39,7815   210        1,0000      Cuts: 37      427     --- 
      0     0       39,7692   152        1,0000     Cuts: 114      565     --- 
*     0+    0                            4,0000       39,7692      713  894,23%
      0     0       39,7529   161        4,0000     Cuts: 144      713  893,82%
      0     0       39,7479   136        4,0000     Cuts: 195      821  893,70%
      0     0       39,7424   148        4,0000     Cuts: 216      952  893,56%
      0     0       39,7389   154        4,0000     Cuts: 241     1067  893,47%
      0     0       39,7329   158        4,0000     Cuts: 291     1187  893,32%
      0     0       39,7255   147        4,0000     Cuts: 291     1271  893,14%
      0     0       39,7195   150        4,0000     Cuts: 291     1380  892,99%
      0     0       39,7127   146        4,0000     Cuts: 291     1461  892,82%
      0     0       39,7075   148        4,0000     Cuts: 291     1574  892,69%
      0     0       39,7024   160        4,0000     Cuts: 291     1692  892,56%
*     0+    0                            8,0000       39,7024     1692  396,28%
*     0+    0                           14,0000       39,7024     1692  183,59%
      0     0       39,6972   168       14,0000     Cuts: 291     1810  183,55%
      0     0       39,6968   101       14,0000     Cuts: 291     1819  183,55%
      0     0       39,6899   109       14,0000     Cuts: 214     1900  183,50%
      0     0       39,6831   142       14,0000      Cuts: 79     2014  183,45%
      0     0       39,6525   157       14,0000      Cuts: 56     2107  183,23%
      0     0       39,5683   151       14,0000      Cuts: 35     2217  182,63%
      0     0       39,4560   161       14,0000     Cuts: 291     2358  181,83%
      0     0       39,3562   162       14,0000     Cuts: 291     2473  181,12%
      0     0       39,2425   158       14,0000     Cuts: 291     2595  180,30%
      0     0       39,1297   174       14,0000     Cuts: 239     2735  179,50%
*     0+    0                           17,0000       39,1297     2735  130,17%
      0     0       39,0769   189       17,0000     Cuts: 209     2868  129,86%
      0     0       39,0236   171       17,0000     Cuts: 248     2932  129,55%
      0     0       38,8824   179       17,0000     Cuts: 291     3042  128,72%
      0     0       38,7385   154       17,0000     Cuts: 210     3125  127,87%
      0     0       38,5853   166       17,0000     Cuts: 239     3276  126,97%
      0     0       38,4503   151       17,0000     Cuts: 291     3424  126,18%
      0     0       38,3268   174       17,0000     Cuts: 291     3608  125,45%
      0     0       38,2086   162       17,0000     Cuts: 291     3853  124,76%
      0     0       37,9750   195       17,0000     Cuts: 291     4085  123,38%
      0     0       37,7531   175       17,0000     Cuts: 291     4205  122,08%
      0     0       37,4862   155       17,0000     Cuts: 291     4336  120,51%
      0     0       37,3941   158       17,0000     Cuts: 291     4480  119,97%
      0     0       36,9782   186       17,0000     Cuts: 291     4665  117,52%
      0     0       36,5395   266       17,0000     Cuts: 291     6992  109,34%
*     0+    0                           19,0000       35,5876     6992   87,30%
      0     0       35,2368   198       19,0000     Cuts: 291     7276   85,46%
      0     0       34,7065   168       19,0000     Cuts: 291     7526   82,67%
      0     0       34,5161   157       19,0000     Cuts: 136     7799   81,66%
      0     0       34,3457   185       19,0000     Cuts: 291     8112   80,77%
      0     0       34,1238   146       19,0000     Cuts: 291     8872   79,60%
      0     0       33,9214   218       19,0000     Cuts: 291     9150   78,53%
      0     0       33,6477   173       19,0000     Cuts: 188     9269   77,09%
      0     0       33,6420   151       19,0000      Cuts: 40     9370   77,06%
      0     2       33,6420   147       19,0000       33,6420     9370   77,06%
Elapsed time = 4,43 sec. (1568,61 ticks, tree = 0,01 MB, solutions = 6)
    121   123       27,5960   310       19,0000       33,4762    24362   76,19%
    367   312       31,9071   135       19,0000       32,5775    41595   71,46%
*   372+  315                           25,0000       32,5775    42537   30,31%
    457   360       28,1206    89       25,0000       32,5775    51231   30,31%
*   513   406      integral     0       27,0000       32,5775    56975   20,66%
    717   517       28,8612    95       27,0000       32,4956    69045   20,35%
   1045   801       28,9152   110       27,0000       32,4052    89118   20,02%
   1222   941       28,4600   104       27,0000       32,4052   105051   20,02%
*  1342+ 1028                           28,0000       32,2908   112776   15,32%
   1507   684       31,9977   192       28,0000       32,2287   120514   15,10%
*  1520+  695                           29,0000       32,2287   121418   11,13%
*  1628+  718                           30,0000       32,2287   127750    7,43%
   1748   151       31,1377   142       30,0000       31,9918   141862    6,64%

Clique cuts applied:  17
Flow cuts applied:  93
Mixed integer rounding cuts applied:  197
Zero-half cuts applied:  84

Root node processing (before b&c):
  Real time             =    4,41 sec. (1563,73 ticks)
Parallel b&c, 4 threads:
  Real time             =    6,52 sec. (2954,32 ticks)
  Sync time (average)   =    1,41 sec.
  Wait time (average)   =    0,00 sec.
                          ------------
Total (root+branch&cut) =   10,93 sec. (4518,05 ticks)

<<< solve


OBJECTIVE: 30

x[1][1] = 1 x[1][2] = 1 x[1][3] = 1 x[1][4] = 1 x[1][5] = 1 x[1][6] = 1 x[1][7] = 1 x[1][8] = 1 
x[2][1] = 0 x[2][2] = 0 x[2][3] = 0 x[2][4] = 1 x[2][5] = 0 x[2][6] = 1 x[2][7] = 1 x[2][8] = 1 
x[3][1] = 0 x[3][2] = 0 x[3][3] = 1 x[3][4] = 1 x[3][5] = 1 x[3][6] = 1 x[3][7] = 1 x[3][8] = 1 
x[4][1] = 1 x[4][2] = 1 x[4][3] = 1 x[4][4] = 0 x[4][5] = 0 x[4][6] = 1 x[4][7] = 1 x[4][8] = 1 
x[5][1] = 1 x[5][2] = 1 x[5][3] = 1 x[5][4] = 0 x[5][5] = 0 x[5][6] = 1 x[5][7] = 1 x[5][8] = 1 


<<< post process


<<< done

